/* Cplex Data generated on 2017-12-16 */

k = 69;

b = 31;

AtomicConstraints = {
	 <1, 7>,
	 <1, 8>,
	 <1, 9>,
	 <1, 17>,
	 <1, 18>,
	 <1, 19>,
	 <1, 20>,
	 <1, 23>,
	 <1, 26>,
	 <1, 67>,
	 <1, 68>,
	 <2, 7>,
	 <2, 8>,
	 <2, 9>,
	 <2, 17>,
	 <2, 18>,
	 <2, 19>,
	 <2, 20>,
	 <2, 21>,
	 <2, 23>,
	 <2, 26>,
	 <2, 67>,
	 <2, 68>,
	 <3, 7>,
	 <3, 8>,
	 <3, 9>,
	 <3, 17>,
	 <3, 18>,
	 <3, 19>,
	 <3, 20>,
	 <3, 21>,
	 <3, 22>,
	 <3, 23>,
	 <3, 67>,
	 <3, 68>,
	 <10, 4>,
	 <10, 5>,
	 <10, 6>,
	 <10, 7>,
	 <10, 8>,
	 <10, 9>,
	 <10, 11>,
	 <10, 13>,
	 <10, 17>,
	 <10, 18>,
	 <10, 19>,
	 <10, 20>,
	 <10, 21>,
	 <10, 22>,
	 <10, 67>,
	 <10, 68>,
	 <11, 4>,
	 <11, 5>,
	 <11, 6>,
	 <11, 7>,
	 <11, 8>,
	 <11, 9>,
	 <11, 17>,
	 <11, 18>,
	 <11, 19>,
	 <11, 20>,
	 <11, 21>,
	 <11, 22>,
	 <11, 67>,
	 <11, 68>,
	 <12, 4>,
	 <12, 5>,
	 <12, 6>,
	 <12, 7>,
	 <12, 8>,
	 <12, 9>,
	 <12, 11>,
	 <12, 13>,
	 <12, 14>,
	 <12, 17>,
	 <12, 18>,
	 <12, 19>,
	 <12, 20>,
	 <12, 21>,
	 <12, 22>,
	 <12, 67>,
	 <12, 68>,
	 <13, 4>,
	 <13, 5>,
	 <13, 6>,
	 <13, 7>,
	 <13, 8>,
	 <13, 9>,
	 <13, 17>,
	 <13, 18>,
	 <13, 19>,
	 <13, 20>,
	 <13, 21>,
	 <13, 22>,
	 <13, 67>,
	 <13, 68>,
	 <63, 4>,
	 <63, 5>,
	 <63, 6>,
	 <63, 7>,
	 <63, 8>,
	 <63, 9>,
	 <63, 11>,
	 <63, 13>,
	 <63, 14>,
	 <63, 17>,
	 <63, 18>,
	 <63, 19>,
	 <63, 20>,
	 <63, 21>,
	 <63, 22>,
	 <63, 67>,
	 <63, 68>,
	 <63, 58>,
	 <63, 59>,
	 <63, 55>,
	 <63, 61>,
	 <63, 56>,
	 <14, 4>,
	 <14, 5>,
	 <14, 6>,
	 <14, 7>,
	 <14, 8>,
	 <14, 9>,
	 <14, 17>,
	 <14, 18>,
	 <14, 19>,
	 <14, 20>,
	 <14, 21>,
	 <14, 22>,
	 <14, 67>,
	 <14, 68>,
	 <14, 58>,
	 <14, 59>,
	 <14, 55>,
	 <14, 61>,
	 <14, 56>,
	 <64, 66>,
	 <64, 67>,
	 <64, 68>,
	 <15, 60>,
	 <15, 66>,
	 <15, 57>,
	 <15, 67>,
	 <15, 54>,
	 <15, 68>,
	 <16, 60>,
	 <16, 66>,
	 <16, 57>,
	 <16, 67>,
	 <16, 54>,
	 <16, 68>,
	 <17, 7>,
	 <17, 8>,
	 <17, 67>,
	 <18, 7>,
	 <18, 8>,
	 <18, 9>,
	 <18, 67>,
	 <19, 7>,
	 <19, 8>,
	 <19, 9>,
	 <19, 67>,
	 <20, 7>,
	 <20, 8>,
	 <20, 9>,
	 <20, 67>,
	 <21, 7>,
	 <21, 8>,
	 <21, 9>,
	 <21, 67>,
	 <22, 7>,
	 <22, 8>,
	 <22, 9>,
	 <22, 67>,
	 <23, 67>,
	 <35, 23>,
	 <35, 26>,
	 <35, 27>,
	 <35, 28>,
	 <35, 57>,
	 <35, 67>,
	 <35, 68>,
	 <40, 23>,
	 <40, 35>,
	 <40, 26>,
	 <40, 27>,
	 <40, 28>,
	 <40, 38>,
	 <40, 57>,
	 <40, 67>,
	 <40, 68>,
	 <37, 23>,
	 <37, 35>,
	 <37, 40>,
	 <37, 26>,
	 <37, 27>,
	 <37, 28>,
	 <37, 38>,
	 <37, 39>,
	 <37, 57>,
	 <37, 67>,
	 <37, 68>,
	 <53, 23>,
	 <53, 35>,
	 <53, 40>,
	 <53, 37>,
	 <53, 26>,
	 <53, 27>,
	 <53, 28>,
	 <53, 38>,
	 <53, 39>,
	 <53, 36>,
	 <53, 57>,
	 <53, 67>,
	 <53, 68>,
	 <50, 23>,
	 <50, 35>,
	 <50, 40>,
	 <50, 37>,
	 <50, 53>,
	 <50, 26>,
	 <50, 27>,
	 <50, 28>,
	 <50, 38>,
	 <50, 39>,
	 <50, 36>,
	 <50, 49>,
	 <50, 57>,
	 <50, 67>,
	 <50, 68>,
	 <52, 23>,
	 <52, 35>,
	 <52, 40>,
	 <52, 37>,
	 <52, 53>,
	 <52, 50>,
	 <52, 26>,
	 <52, 27>,
	 <52, 28>,
	 <52, 38>,
	 <52, 39>,
	 <52, 36>,
	 <52, 49>,
	 <52, 48>,
	 <52, 57>,
	 <52, 67>,
	 <52, 54>,
	 <52, 68>,
	 <32, 23>,
	 <32, 35>,
	 <32, 40>,
	 <32, 37>,
	 <32, 53>,
	 <32, 50>,
	 <32, 52>,
	 <32, 26>,
	 <32, 27>,
	 <32, 28>,
	 <32, 38>,
	 <32, 39>,
	 <32, 36>,
	 <32, 49>,
	 <32, 48>,
	 <32, 51>,
	 <32, 57>,
	 <32, 67>,
	 <32, 54>,
	 <32, 68>,
	 <33, 23>,
	 <33, 35>,
	 <33, 40>,
	 <33, 37>,
	 <33, 53>,
	 <33, 50>,
	 <33, 52>,
	 <33, 32>,
	 <33, 26>,
	 <33, 27>,
	 <33, 28>,
	 <33, 38>,
	 <33, 39>,
	 <33, 36>,
	 <33, 49>,
	 <33, 48>,
	 <33, 51>,
	 <33, 57>,
	 <33, 67>,
	 <33, 54>,
	 <33, 68>,
	 <34, 23>,
	 <34, 35>,
	 <34, 40>,
	 <34, 37>,
	 <34, 53>,
	 <34, 50>,
	 <34, 52>,
	 <34, 32>,
	 <34, 33>,
	 <34, 26>,
	 <34, 27>,
	 <34, 28>,
	 <34, 38>,
	 <34, 39>,
	 <34, 36>,
	 <34, 49>,
	 <34, 48>,
	 <34, 51>,
	 <34, 57>,
	 <34, 67>,
	 <34, 54>,
	 <34, 68>,
	 <24, 23>,
	 <24, 35>,
	 <24, 40>,
	 <24, 37>,
	 <24, 53>,
	 <24, 50>,
	 <24, 52>,
	 <24, 32>,
	 <24, 33>,
	 <24, 34>,
	 <24, 26>,
	 <24, 27>,
	 <24, 28>,
	 <24, 38>,
	 <24, 39>,
	 <24, 36>,
	 <24, 49>,
	 <24, 48>,
	 <24, 51>,
	 <24, 29>,
	 <24, 57>,
	 <24, 67>,
	 <24, 54>,
	 <24, 68>,
	 <25, 23>,
	 <25, 35>,
	 <25, 40>,
	 <25, 37>,
	 <25, 53>,
	 <25, 50>,
	 <25, 52>,
	 <25, 32>,
	 <25, 33>,
	 <25, 34>,
	 <25, 24>,
	 <25, 26>,
	 <25, 27>,
	 <25, 28>,
	 <25, 38>,
	 <25, 39>,
	 <25, 36>,
	 <25, 49>,
	 <25, 48>,
	 <25, 51>,
	 <25, 29>,
	 <25, 57>,
	 <25, 67>,
	 <25, 54>,
	 <25, 68>,
	 <47, 23>,
	 <47, 35>,
	 <47, 40>,
	 <47, 37>,
	 <47, 53>,
	 <47, 50>,
	 <47, 52>,
	 <47, 32>,
	 <47, 33>,
	 <47, 34>,
	 <47, 24>,
	 <47, 25>,
	 <47, 26>,
	 <47, 27>,
	 <47, 28>,
	 <47, 38>,
	 <47, 39>,
	 <47, 36>,
	 <47, 49>,
	 <47, 48>,
	 <47, 51>,
	 <47, 29>,
	 <47, 30>,
	 <47, 57>,
	 <47, 67>,
	 <47, 54>,
	 <47, 68>,
	 <42, 23>,
	 <42, 35>,
	 <42, 40>,
	 <42, 37>,
	 <42, 53>,
	 <42, 50>,
	 <42, 52>,
	 <42, 32>,
	 <42, 33>,
	 <42, 34>,
	 <42, 24>,
	 <42, 25>,
	 <42, 47>,
	 <42, 26>,
	 <42, 27>,
	 <42, 28>,
	 <42, 38>,
	 <42, 39>,
	 <42, 36>,
	 <42, 49>,
	 <42, 48>,
	 <42, 51>,
	 <42, 29>,
	 <42, 30>,
	 <42, 57>,
	 <42, 67>,
	 <42, 54>,
	 <42, 68>,
	 <45, 23>,
	 <45, 35>,
	 <45, 40>,
	 <45, 37>,
	 <45, 53>,
	 <45, 50>,
	 <45, 52>,
	 <45, 32>,
	 <45, 33>,
	 <45, 34>,
	 <45, 24>,
	 <45, 25>,
	 <45, 47>,
	 <45, 42>,
	 <45, 26>,
	 <45, 27>,
	 <45, 28>,
	 <45, 38>,
	 <45, 39>,
	 <45, 36>,
	 <45, 49>,
	 <45, 48>,
	 <45, 51>,
	 <45, 29>,
	 <45, 30>,
	 <45, 41>,
	 <45, 57>,
	 <45, 67>,
	 <45, 54>,
	 <45, 68>,
	 <43, 23>,
	 <43, 35>,
	 <43, 40>,
	 <43, 37>,
	 <43, 53>,
	 <43, 50>,
	 <43, 52>,
	 <43, 32>,
	 <43, 33>,
	 <43, 34>,
	 <43, 24>,
	 <43, 25>,
	 <43, 47>,
	 <43, 42>,
	 <43, 45>,
	 <43, 26>,
	 <43, 27>,
	 <43, 28>,
	 <43, 38>,
	 <43, 39>,
	 <43, 36>,
	 <43, 49>,
	 <43, 48>,
	 <43, 51>,
	 <43, 29>,
	 <43, 30>,
	 <43, 41>,
	 <43, 44>,
	 <43, 57>,
	 <43, 67>,
	 <43, 54>,
	 <43, 68>,
	 <26, 67>,
	 <27, 23>,
	 <27, 26>,
	 <27, 67>,
	 <28, 23>,
	 <28, 26>,
	 <28, 27>,
	 <28, 57>,
	 <28, 67>,
	 <38, 23>,
	 <38, 26>,
	 <38, 27>,
	 <38, 28>,
	 <38, 57>,
	 <38, 67>,
	 <38, 68>,
	 <39, 23>,
	 <39, 35>,
	 <39, 26>,
	 <39, 27>,
	 <39, 28>,
	 <39, 38>,
	 <39, 57>,
	 <39, 67>,
	 <39, 68>,
	 <36, 23>,
	 <36, 35>,
	 <36, 40>,
	 <36, 26>,
	 <36, 27>,
	 <36, 28>,
	 <36, 38>,
	 <36, 39>,
	 <36, 57>,
	 <36, 67>,
	 <36, 68>,
	 <49, 23>,
	 <49, 35>,
	 <49, 40>,
	 <49, 37>,
	 <49, 26>,
	 <49, 27>,
	 <49, 28>,
	 <49, 38>,
	 <49, 39>,
	 <49, 36>,
	 <49, 57>,
	 <49, 67>,
	 <49, 68>,
	 <48, 23>,
	 <48, 35>,
	 <48, 40>,
	 <48, 37>,
	 <48, 53>,
	 <48, 26>,
	 <48, 27>,
	 <48, 28>,
	 <48, 38>,
	 <48, 39>,
	 <48, 36>,
	 <48, 49>,
	 <48, 57>,
	 <48, 67>,
	 <48, 54>,
	 <48, 68>,
	 <51, 23>,
	 <51, 35>,
	 <51, 40>,
	 <51, 37>,
	 <51, 53>,
	 <51, 50>,
	 <51, 26>,
	 <51, 27>,
	 <51, 28>,
	 <51, 38>,
	 <51, 39>,
	 <51, 36>,
	 <51, 49>,
	 <51, 48>,
	 <51, 57>,
	 <51, 67>,
	 <51, 54>,
	 <51, 68>,
	 <29, 23>,
	 <29, 35>,
	 <29, 40>,
	 <29, 37>,
	 <29, 53>,
	 <29, 50>,
	 <29, 52>,
	 <29, 32>,
	 <29, 33>,
	 <29, 26>,
	 <29, 27>,
	 <29, 28>,
	 <29, 38>,
	 <29, 39>,
	 <29, 36>,
	 <29, 49>,
	 <29, 48>,
	 <29, 51>,
	 <29, 57>,
	 <29, 67>,
	 <29, 54>,
	 <29, 68>,
	 <30, 23>,
	 <30, 35>,
	 <30, 40>,
	 <30, 37>,
	 <30, 53>,
	 <30, 50>,
	 <30, 52>,
	 <30, 32>,
	 <30, 33>,
	 <30, 34>,
	 <30, 24>,
	 <30, 26>,
	 <30, 27>,
	 <30, 28>,
	 <30, 38>,
	 <30, 39>,
	 <30, 36>,
	 <30, 49>,
	 <30, 48>,
	 <30, 51>,
	 <30, 29>,
	 <30, 57>,
	 <30, 67>,
	 <30, 54>,
	 <30, 68>,
	 <41, 23>,
	 <41, 35>,
	 <41, 40>,
	 <41, 37>,
	 <41, 53>,
	 <41, 50>,
	 <41, 52>,
	 <41, 32>,
	 <41, 33>,
	 <41, 34>,
	 <41, 24>,
	 <41, 25>,
	 <41, 47>,
	 <41, 26>,
	 <41, 27>,
	 <41, 28>,
	 <41, 38>,
	 <41, 39>,
	 <41, 36>,
	 <41, 49>,
	 <41, 48>,
	 <41, 51>,
	 <41, 29>,
	 <41, 30>,
	 <41, 57>,
	 <41, 67>,
	 <41, 54>,
	 <41, 68>,
	 <44, 23>,
	 <44, 35>,
	 <44, 40>,
	 <44, 37>,
	 <44, 53>,
	 <44, 50>,
	 <44, 52>,
	 <44, 32>,
	 <44, 33>,
	 <44, 34>,
	 <44, 24>,
	 <44, 25>,
	 <44, 47>,
	 <44, 42>,
	 <44, 26>,
	 <44, 27>,
	 <44, 28>,
	 <44, 38>,
	 <44, 39>,
	 <44, 36>,
	 <44, 49>,
	 <44, 48>,
	 <44, 51>,
	 <44, 29>,
	 <44, 30>,
	 <44, 41>,
	 <44, 57>,
	 <44, 67>,
	 <44, 54>,
	 <44, 68>,
	 <46, 23>,
	 <46, 35>,
	 <46, 40>,
	 <46, 37>,
	 <46, 53>,
	 <46, 50>,
	 <46, 52>,
	 <46, 32>,
	 <46, 33>,
	 <46, 34>,
	 <46, 24>,
	 <46, 25>,
	 <46, 47>,
	 <46, 42>,
	 <46, 45>,
	 <46, 26>,
	 <46, 27>,
	 <46, 28>,
	 <46, 38>,
	 <46, 39>,
	 <46, 36>,
	 <46, 49>,
	 <46, 48>,
	 <46, 51>,
	 <46, 29>,
	 <46, 30>,
	 <46, 41>,
	 <46, 44>,
	 <46, 57>,
	 <46, 67>,
	 <46, 54>,
	 <46, 68>,
	 <31, 23>,
	 <31, 35>,
	 <31, 40>,
	 <31, 37>,
	 <31, 53>,
	 <31, 50>,
	 <31, 52>,
	 <31, 32>,
	 <31, 33>,
	 <31, 34>,
	 <31, 24>,
	 <31, 25>,
	 <31, 47>,
	 <31, 42>,
	 <31, 45>,
	 <31, 43>,
	 <31, 26>,
	 <31, 27>,
	 <31, 28>,
	 <31, 38>,
	 <31, 39>,
	 <31, 36>,
	 <31, 49>,
	 <31, 48>,
	 <31, 51>,
	 <31, 29>,
	 <31, 30>,
	 <31, 41>,
	 <31, 44>,
	 <31, 46>,
	 <31, 60>,
	 <31, 66>,
	 <31, 57>,
	 <31, 67>,
	 <31, 54>,
	 <31, 68>,
	 <65, 1>,
	 <65, 2>,
	 <65, 7>,
	 <65, 8>,
	 <65, 9>,
	 <65, 17>,
	 <65, 18>,
	 <65, 19>,
	 <65, 20>,
	 <65, 21>,
	 <65, 23>,
	 <65, 35>,
	 <65, 40>,
	 <65, 37>,
	 <65, 53>,
	 <65, 26>,
	 <65, 27>,
	 <65, 28>,
	 <65, 38>,
	 <65, 39>,
	 <65, 36>,
	 <65, 49>,
	 <65, 57>,
	 <65, 67>,
	 <65, 68>,
	 <60, 57>,
	 <60, 67>,
	 <60, 54>,
	 <60, 68>,
	 <66, 67>,
	 <66, 68>,
	 <54, 57>,
	 <54, 67>,
	 <68, 67>,
	 <69, 1>,
	 <69, 2>,
	 <69, 3>,
	 <69, 4>,
	 <69, 5>,
	 <69, 6>,
	 <69, 7>,
	 <69, 8>,
	 <69, 9>,
	 <69, 10>,
	 <69, 11>,
	 <69, 12>,
	 <69, 13>,
	 <69, 63>,
	 <69, 14>,
	 <69, 17>,
	 <69, 18>,
	 <69, 19>,
	 <69, 20>,
	 <69, 21>,
	 <69, 22>,
	 <69, 23>,
	 <69, 26>,
	 <69, 27>,
	 <69, 28>,
	 <69, 57>,
	 <69, 67>,
	 <69, 68>,
	 <69, 58>,
	 <69, 59>,
	 <69, 55>,
	 <69, 61>,
	 <69, 56>,
	 <62, 1>,
	 <62, 2>,
	 <62, 3>,
	 <62, 4>,
	 <62, 5>,
	 <62, 6>,
	 <62, 7>,
	 <62, 8>,
	 <62, 9>,
	 <62, 10>,
	 <62, 11>,
	 <62, 12>,
	 <62, 13>,
	 <62, 63>,
	 <62, 14>,
	 <62, 17>,
	 <62, 18>,
	 <62, 19>,
	 <62, 20>,
	 <62, 21>,
	 <62, 22>,
	 <62, 23>,
	 <62, 26>,
	 <62, 27>,
	 <62, 28>,
	 <62, 57>,
	 <62, 67>,
	 <62, 68>,
	 <62, 58>,
	 <62, 59>,
	 <62, 55>,
	 <62, 61>,
	 <62, 56>,
	 <59, 58>,
	 <55, 58>,
	 <55, 59>,
	 <61, 58>,
	 <61, 59>,
	 <61, 55>,
	 <56, 58>,
	 <56, 59>,
	 <56, 55>,
	 <56, 61>,
	 }; 

SoftAtomicConstraints = {
	 <2, 1>,
	 <3, 2>,
	 <5, 4>,
	 <6, 5>,
	 <8, 7>,
	 <9, 8>,
	 <12, 10>,
	 <13, 11>,
	 <63, 12>,
	 <14, 13>,
	 <16, 15>,
	 <18, 17>,
	 <19, 18>,
	 <20, 19>,
	 <21, 20>,
	 <22, 21>,
	 <23, 26>,
	 <34, 29>,
	 <25, 30>,
	 <37, 36>,
	 <35, 38>,
	 <40, 39>,
	 <42, 41>,
	 <45, 44>,
	 <43, 46>,
	 <50, 48>,
	 <53, 49>,
	 <52, 51>,
	 <15, 64>,
	 <69, 65>,
	 <60, 66>,
	 <57, 67>,
	 <54, 68>,
	 <62, 69>,
	 }; 

DisjunctiveConstraints = {
	 <1, 20, 51, 1>,
	 <1, 50, 1, 19>,
	 <2, 3, 2, 1>,
	 <2, 21, 52, 2>,
	 <2, 51, 2, 20>,
	 <3, 22, 53, 3>,
	 <3, 52, 3, 21>,
	 <5, 6, 5, 4>,
	 <8, 9, 8, 7>,
	 <12, 63, 12, 10>,
	 <12, 58, 27, 12>,
	 <12, 59, 28, 12>,
	 <13, 14, 13, 11>,
	 <13, 58, 27, 13>,
	 <63, 61, 30, 63>,
	 <14, 61, 30, 14>,
	 <14, 56, 25, 14>,
	 <15, 16, 15, 64>,
	 <15, 57, 26, 15>,
	 <18, 19, 18, 17>,
	 <19, 20, 19, 18>,
	 <20, 21, 20, 19>,
	 <21, 22, 21, 20>,
	 <47, 35, 47, 4>,
	 <47, 54, 47, 23>,
	 <42, 35, 42, 4>,
	 <42, 54, 42, 23>,
	 <45, 35, 45, 4>,
	 <45, 37, 45, 6>,
	 <45, 54, 45, 23>,
	 <43, 35, 43, 4>,
	 <43, 37, 43, 6>,
	 <43, 54, 43, 23>,
	 <30, 27, 30, 58>,
	 <30, 28, 30, 59>,
	 <41, 27, 41, 58>,
	 <41, 28, 41, 59>,
	 <41, 57, 41, 26>,
	 <44, 35, 4, 44>,
	 <44, 27, 44, 58>,
	 <44, 28, 44, 59>,
	 <44, 36, 44, 5>,
	 <44, 57, 44, 26>,
	 <46, 35, 4, 46>,
	 <46, 27, 46, 58>,
	 <46, 28, 46, 59>,
	 <46, 36, 46, 5>,
	 <46, 57, 46, 26>,
	 <65, 21, 52, 65>,
	 <65, 51, 65, 20>,
	 <69, 24, 69, 55>,
	 <69, 25, 69, 56>,
	 <69, 27, 69, 58>,
	 <69, 28, 69, 59>,
	 <69, 30, 69, 61>,
	 }; 

DirectSuccessors = {
	 }; 

